




































































































63 43 46 13 9 69 
44 65 58 21 8 34 
54 41 5 11 23 
73 27 66 22 51 
38 61 0 32 3 33 
24 48 53 14 20 19 
36 49 
70 15 45 6 16 17 
25 4 35 62 18 7 
1 31 68 71 67 52 
76 40 12 57 72 56 
75 55 26 50 47 29 
39 64 60 2 
74 37 28 30 10 59 42 
